60
1 0 4
2 0 5
2 1 9
3 0 1
3 1 14
3 2 13
4 0 1
4 1 6
4 2 5
4 3 5
5 0 4
5 1 2
5 2 13
5 3 14
5 4 6
6 0 9
6 1 2
6 2 6
6 3 11
6 4 9
6 5 9
7 0 12
7 1 6
7 2 8
7 3 11
7 4 7
7 5 9
7 6 6
8 0 14
8 1 13
8 2 12
8 3 13
8 4 7
8 5 1
8 6 4
8 7 8
9 0 11
9 1 7
9 2 4
9 3 12
9 4 8
9 5 1
9 6 12
9 7 7
9 8 7
10 0 3
10 1 13
10 2 12
10 3 12
10 4 6
10 5 9
10 6 14
10 7 12
10 8 7
10 9 5
11 0 5
11 1 10
11 2 10
11 3 9
11 4 5
11 5 14
11 6 13
11 7 13
11 8 1
11 9 5
11 10 4
12 0 4
12 1 10
12 2 6
12 3 10
12 4 12
12 5 10
12 6 11
12 7 4
12 8 4
12 9 1
12 10 9
12 11 13
13 0 14
13 1 12
13 2 11
13 3 8
13 4 3
13 5 14
13 6 6
13 7 3
13 8 11
13 9 8
13 10 1
13 11 11
13 12 14
14 0 8
14 1 10
14 2 5
14 3 2
14 4 10
14 5 1
14 6 5
14 7 3
14 8 3
14 9 12
14 10 5
14 11 14
14 12 3
14 13 14
15 0 12
15 1 11
15 2 1
15 3 5
15 4 6
15 5 11
15 6 3
15 7 9
15 8 8
15 9 11
15 10 8
15 11 8
15 12 2
15 13 12
15 14 11
16 0 1
16 1 5
16 2 1
16 3 12
16 4 7
16 5 6
16 6 4
16 7 4
16 8 9
16 9 10
16 10 1
16 11 14
16 12 1
16 13 11
16 14 3
16 15 7
17 0 7
17 1 7
17 2 12
17 3 4
17 4 8
17 5 13
17 6 3
17 7 5
17 8 9
17 9 2
17 10 3
17 11 4
17 12 11
17 13 10
17 14 5
17 15 1
17 16 12
18 0 13
18 1 5
18 2 7
18 3 8
18 4 6
18 5 2
18 6 6
18 7 5
18 8 14
18 9 9
18 10 12
18 11 14
18 12 8
18 13 4
18 14 12
18 15 3
18 16 1
18 17 5
19 0 10
19 1 1
19 2 9
19 3 6
19 4 6
19 5 12
19 6 1
19 7 5
19 8 1
19 9 12
19 10 10
19 11 5
19 12 3
19 13 14
19 14 14
19 15 3
19 16 13
19 17 6
19 18 3
20 0 9
20 1 14
20 2 1
20 3 7
20 4 1
20 5 9
20 6 13
20 7 9
20 8 3
20 9 7
20 10 13
20 11 4
20 12 14
20 13 5
20 14 9
20 15 5
20 16 13
20 17 4
20 18 14
20 19 13
21 0 8
21 1 5
21 2 7
21 3 3
21 4 10
21 5 1
21 6 7
21 7 14
21 8 13
21 9 10
21 10 6
21 11 9
21 12 9
21 13 14
21 14 12
21 15 8
21 16 3
21 17 14
21 18 6
21 19 3
21 20 2
22 0 6
22 1 14
22 2 8
22 3 12
22 4 8
22 5 7
22 6 8
22 7 5
22 8 4
22 9 3
22 10 14
22 11 4
22 12 11
22 13 11
22 14 5
22 15 1
22 16 14
22 17 9
22 18 14
22 19 4
22 20 6
22 21 1
23 0 13
23 1 1
23 2 7
23 3 2
23 4 1
23 5 11
23 6 7
23 7 5
23 8 6
23 9 2
23 10 7
23 11 5
23 12 3
23 13 7
23 14 8
23 15 11
23 16 7
23 17 8
23 18 3
23 19 13
23 20 7
23 21 13
23 22 5
24 0 8
24 1 6
24 2 12
24 3 6
24 4 2
24 5 11
24 6 14
24 7 9
24 8 6
24 9 14
24 10 5
24 11 6
24 12 2
24 13 10
24 14 4
24 15 1
24 16 12
24 17 6
24 18 3
24 19 1
24 20 6
24 21 13
24 22 12
24 23 4
25 0 11
25 1 8
25 2 5
25 3 6
25 4 3
25 5 14
25 6 12
25 7 13
25 8 10
25 9 7
25 10 1
25 11 14
25 12 11
25 13 9
25 14 14
25 15 9
25 16 7
25 17 1
25 18 1
25 19 6
25 20 6
25 21 8
25 22 11
25 23 6
25 24 11
26 0 7
26 1 3
26 2 1
26 3 2
26 4 2
26 5 2
26 6 11
26 7 8
26 8 12
26 9 6
26 10 6
26 11 1
26 12 8
26 13 3
26 14 10
26 15 8
26 16 10
26 17 3
26 18 4
26 19 8
26 20 7
26 21 1
26 22 11
26 23 9
26 24 11
26 25 14
27 0 1
27 1 5
27 2 4
27 3 14
27 4 10
27 5 7
27 6 7
27 7 10
27 8 1
27 9 5
27 10 8
27 11 7
27 12 7
27 13 3
27 14 8
27 15 4
27 16 11
27 17 11
27 18 11
27 19 14
27 20 7
27 21 8
27 22 12
27 23 3
27 24 12
27 25 2
27 26 5
28 0 12
28 1 6
28 2 2
28 3 14
28 4 11
28 5 7
28 6 3
28 7 11
28 8 14
28 9 7
28 10 12
28 11 14
28 12 12
28 13 12
28 14 6
28 15 4
28 16 5
28 17 10
28 18 5
28 19 1
28 20 5
28 21 6
28 22 8
28 23 8
28 24 13
28 25 3
28 26 6
28 27 5
29 0 4
29 1 14
29 2 7
29 3 12
29 4 9
29 5 5
29 6 4
29 7 10
29 8 2
29 9 6
29 10 11
29 11 5
29 12 3
29 13 7
29 14 9
29 15 6
29 16 5
29 17 6
29 18 11
29 19 10
29 20 1
29 21 1
29 22 7
29 23 14
29 24 5
29 25 1
29 26 10
29 27 13
29 28 14
30 0 5
30 1 7
30 2 5
30 3 2
30 4 11
30 5 13
30 6 8
30 7 11
30 8 14
30 9 14
30 10 13
30 11 7
30 12 12
30 13 11
30 14 4
30 15 8
30 16 10
30 17 3
30 18 6
30 19 6
30 20 2
30 21 10
30 22 2
30 23 11
30 24 11
30 25 6
30 26 12
30 27 12
30 28 7
30 29 3
31 0 14
31 1 1
31 2 1
31 3 5
31 4 3
31 5 3
31 6 13
31 7 13
31 8 5
31 9 8
31 10 11
31 11 6
31 12 10
31 13 4
31 14 7
31 15 4
31 16 2
31 17 10
31 18 4
31 19 12
31 20 4
31 21 6
31 22 5
31 23 5
31 24 4
31 25 6
31 26 2
31 27 9
31 28 2
31 29 11
31 30 2
32 0 14
32 1 1
32 2 13
32 3 1
32 4 4
32 5 14
32 6 5
32 7 9
32 8 3
32 9 12
32 10 6
32 11 14
32 12 11
32 13 14
32 14 3
32 15 13
32 16 14
32 17 3
32 18 12
32 19 4
32 20 13
32 21 10
32 22 5
32 23 4
32 24 14
32 25 8
32 26 10
32 27 14
32 28 10
32 29 1
32 30 5
32 31 5
33 0 7
33 1 3
33 2 1
33 3 9
33 4 4
33 5 13
33 6 2
33 7 9
33 8 3
33 9 11
33 10 9
33 11 6
33 12 4
33 13 5
33 14 13
33 15 2
33 16 10
33 17 13
33 18 11
33 19 10
33 20 7
33 21 5
33 22 13
33 23 5
33 24 4
33 25 4
33 26 10
33 27 14
33 28 12
33 29 10
33 30 1
33 31 13
33 32 11
34 0 6
34 1 12
34 2 4
34 3 12
34 4 5
34 5 2
34 6 14
34 7 9
34 8 9
34 9 3
34 10 8
34 11 6
34 12 1
34 13 2
34 14 3
34 15 12
34 16 6
34 17 8
34 18 6
34 19 13
34 20 4
34 21 3
34 22 8
34 23 10
34 24 8
34 25 5
34 26 2
34 27 14
34 28 10
34 29 10
34 30 3
34 31 4
34 32 6
34 33 1
35 0 11
35 1 3
35 2 12
35 3 9
35 4 13
35 5 11
35 6 8
35 7 12
35 8 6
35 9 2
35 10 3
35 11 6
35 12 2
35 13 11
35 14 6
35 15 9
35 16 14
35 17 10
35 18 8
35 19 3
35 20 9
35 21 1
35 22 2
35 23 8
35 24 3
35 25 9
35 26 2
35 27 14
35 28 2
35 29 1
35 30 10
35 31 14
35 32 3
35 33 12
35 34 13
36 0 10
36 1 13
36 2 12
36 3 8
36 4 13
36 5 5
36 6 9
36 7 1
36 8 3
36 9 10
36 10 14
36 11 5
36 12 8
36 13 7
36 14 8
36 15 3
36 16 10
36 17 14
36 18 12
36 19 7
36 20 12
36 21 11
36 22 12
36 23 10
36 24 9
36 25 12
36 26 3
36 27 14
36 28 6
36 29 9
36 30 10
36 31 2
36 32 10
36 33 7
36 34 5
36 35 12
37 0 5
37 1 14
37 2 4
37 3 7
37 4 4
37 5 11
37 6 14
37 7 3
37 8 3
37 9 11
37 10 2
37 11 2
37 12 4
37 13 8
37 14 10
37 15 6
37 16 11
37 17 6
37 18 13
37 19 5
37 20 4
37 21 11
37 22 4
37 23 12
37 24 6
37 25 1
37 26 13
37 27 9
37 28 12
37 29 4
37 30 12
37 31 5
37 32 3
37 33 5
37 34 8
37 35 9
37 36 7
38 0 9
38 1 3
38 2 4
38 3 2
38 4 13
38 5 2
38 6 13
38 7 6
38 8 9
38 9 10
38 10 3
38 11 2
38 12 2
38 13 8
38 14 5
38 15 7
38 16 8
38 17 8
38 18 1
38 19 4
38 20 9
38 21 12
38 22 8
38 23 8
38 24 8
38 25 13
38 26 2
38 27 4
38 28 6
38 29 1
38 30 11
38 31 10
38 32 4
38 33 10
38 34 4
38 35 2
38 36 6
38 37 3
39 0 1
39 1 12
39 2 13
39 3 11
39 4 5
39 5 10
39 6 9
39 7 10
39 8 14
39 9 3
39 10 11
39 11 10
39 12 7
39 13 5
39 14 13
39 15 10
39 16 9
39 17 7
39 18 7
39 19 10
39 20 9
39 21 4
39 22 2
39 23 14
39 24 5
39 25 10
39 26 5
39 27 8
39 28 2
39 29 8
39 30 2
39 31 5
39 32 6
39 33 2
39 34 5
39 35 4
39 36 8
39 37 2
39 38 1
40 0 4
40 1 12
40 2 4
40 3 1
40 4 14
40 5 8
40 6 1
40 7 7
40 8 14
40 9 13
40 10 10
40 11 1
40 12 8
40 13 6
40 14 2
40 15 9
40 16 10
40 17 11
40 18 14
40 19 9
40 20 2
40 21 11
40 22 12
40 23 12
40 24 11
40 25 6
40 26 14
40 27 14
40 28 4
40 29 12
40 30 14
40 31 14
40 32 6
40 33 5
40 34 12
40 35 14
40 36 12
40 37 7
40 38 12
40 39 7
41 0 9
41 1 2
41 2 3
41 3 10
41 4 14
41 5 3
41 6 11
41 7 10
41 8 1
41 9 8
41 10 13
41 11 8
41 12 9
41 13 5
41 14 9
41 15 10
41 16 12
41 17 14
41 18 9
41 19 14
41 20 12
41 21 14
41 22 9
41 23 3
41 24 14
41 25 11
41 26 10
41 27 11
41 28 14
41 29 9
41 30 12
41 31 7
41 32 12
41 33 5
41 34 14
41 35 7
41 36 9
41 37 7
41 38 5
41 39 13
41 40 10
42 0 12
42 1 5
42 2 9
42 3 6
42 4 13
42 5 7
42 6 8
42 7 10
42 8 4
42 9 6
42 10 5
42 11 9
42 12 12
42 13 12
42 14 12
42 15 10
42 16 3
42 17 11
42 18 6
42 19 3
42 20 3
42 21 2
42 22 8
42 23 2
42 24 11
42 25 4
42 26 10
42 27 2
42 28 13
42 29 5
42 30 7
42 31 8
42 32 8
42 33 9
42 34 5
42 35 6
42 36 4
42 37 3
42 38 5
42 39 7
42 40 10
42 41 12
43 0 2
43 1 5
43 2 14
43 3 3
43 4 13
43 5 3
43 6 7
43 7 5
43 8 7
43 9 7
43 10 3
43 11 2
43 12 14
43 13 10
43 14 14
43 15 9
43 16 2
43 17 12
43 18 8
43 19 7
43 20 3
43 21 6
43 22 6
43 23 12
43 24 9
43 25 6
43 26 2
43 27 2
43 28 9
43 29 3
43 30 10
43 31 6
43 32 1
43 33 12
43 34 13
43 35 8
43 36 10
43 37 8
43 38 14
43 39 9
43 40 1
43 41 8
43 42 5
44 0 4
44 1 7
44 2 5
44 3 6
44 4 13
44 5 11
44 6 2
44 7 8
44 8 13
44 9 4
44 10 13
44 11 8
44 12 13
44 13 14
44 14 13
44 15 10
44 16 8
44 17 11
44 18 6
44 19 12
44 20 10
44 21 7
44 22 13
44 23 8
44 24 5
44 25 3
44 26 8
44 27 10
44 28 2
44 29 8
44 30 2
44 31 1
44 32 1
44 33 12
44 34 3
44 35 10
44 36 3
44 37 9
44 38 13
44 39 5
44 40 6
44 41 7
44 42 5
44 43 8
45 0 8
45 1 14
45 2 14
45 3 14
45 4 5
45 5 9
45 6 5
45 7 9
45 8 13
45 9 6
45 10 4
45 11 7
45 12 1
45 13 6
45 14 4
45 15 12
45 16 3
45 17 12
45 18 8
45 19 3
45 20 8
45 21 11
45 22 8
45 23 2
45 24 4
45 25 14
45 26 13
45 27 1
45 28 4
45 29 8
45 30 13
45 31 7
45 32 3
45 33 13
45 34 12
45 35 5
45 36 1
45 37 11
45 38 11
45 39 6
45 40 3
45 41 6
45 42 7
45 43 11
45 44 7
46 0 12
46 1 5
46 2 2
46 3 1
46 4 13
46 5 1
46 6 1
46 7 14
46 8 2
46 9 4
46 10 14
46 11 5
46 12 11
46 13 14
46 14 2
46 15 1
46 16 10
46 17 14
46 18 8
46 19 8
46 20 10
46 21 9
46 22 6
46 23 8
46 24 13
46 25 11
46 26 3
46 27 4
46 28 5
46 29 12
46 30 12
46 31 7
46 32 12
46 33 5
46 34 6
46 35 8
46 36 12
46 37 2
46 38 5
46 39 1
46 40 7
46 41 14
46 42 3
46 43 2
46 44 14
46 45 12
47 0 6
47 1 10
47 2 1
47 3 13
47 4 3
47 5 4
47 6 13
47 7 2
47 8 5
47 9 6
47 10 4
47 11 13
47 12 11
47 13 7
47 14 5
47 15 2
47 16 4
47 17 13
47 18 4
47 19 7
47 20 10
47 21 7
47 22 12
47 23 1
47 24 12
47 25 2
47 26 4
47 27 7
47 28 3
47 29 5
47 30 6
47 31 4
47 32 12
47 33 5
47 34 12
47 35 12
47 36 1
47 37 12
47 38 9
47 39 12
47 40 5
47 41 1
47 42 4
47 43 11
47 44 6
47 45 8
47 46 13
48 0 13
48 1 14
48 2 6
48 3 5
48 4 8
48 5 14
48 6 14
48 7 1
48 8 4
48 9 11
48 10 14
48 11 9
48 12 7
48 13 1
48 14 3
48 15 4
48 16 6
48 17 9
48 18 2
48 19 2
48 20 12
48 21 8
48 22 6
48 23 3
48 24 13
48 25 10
48 26 9
48 27 5
48 28 5
48 29 12
48 30 10
48 31 9
48 32 12
48 33 12
48 34 10
48 35 9
48 36 12
48 37 5
48 38 11
48 39 6
48 40 8
48 41 2
48 42 13
48 43 2
48 44 8
48 45 5
48 46 9
48 47 7
49 0 4
49 1 12
49 2 6
49 3 11
49 4 8
49 5 2
49 6 3
49 7 5
49 8 13
49 9 12
49 10 12
49 11 1
49 12 6
49 13 3
49 14 3
49 15 13
49 16 4
49 17 11
49 18 13
49 19 2
49 20 2
49 21 8
49 22 11
49 23 8
49 24 13
49 25 1
49 26 7
49 27 14
49 28 1
49 29 10
49 30 12
49 31 9
49 32 6
49 33 11
49 34 4
49 35 6
49 36 3
49 37 14
49 38 7
49 39 14
49 40 13
49 41 1
49 42 12
49 43 14
49 44 13
49 45 13
49 46 14
49 47 4
49 48 7
50 0 8
50 1 14
50 2 13
50 3 3
50 4 3
50 5 9
50 6 14
50 7 8
50 8 6
50 9 7
50 10 11
50 11 12
50 12 2
50 13 12
50 14 4
50 15 11
50 16 3
50 17 9
50 18 4
50 19 9
50 20 2
50 21 8
50 22 3
50 23 2
50 24 5
50 25 7
50 26 5
50 27 5
50 28 8
50 29 7
50 30 2
50 31 4
50 32 12
50 33 4
50 34 14
50 35 5
50 36 8
50 37 10
50 38 7
50 39 5
50 40 1
50 41 11
50 42 5
50 43 7
50 44 13
50 45 8
50 46 10
50 47 9
50 48 14
50 49 3
51 0 2
51 1 14
51 2 1
51 3 9
51 4 13
51 5 2
51 6 9
51 7 9
51 8 4
51 9 4
51 10 13
51 11 9
51 12 7
51 13 1
51 14 12
51 15 9
51 16 7
51 17 11
51 18 6
51 19 11
51 20 7
51 21 7
51 22 4
51 23 5
51 24 11
51 25 1
51 26 3
51 27 4
51 28 2
51 29 9
51 30 5
51 31 6
51 32 2
51 33 11
51 34 13
51 35 10
51 36 4
51 37 6
51 38 5
51 39 8
51 40 9
51 41 11
51 42 8
51 43 14
51 44 1
51 45 9
51 46 9
51 47 2
51 48 8
51 49 13
51 50 2
52 0 6
52 1 11
52 2 10
52 3 1
52 4 14
52 5 2
52 6 10
52 7 2
52 8 4
52 9 12
52 10 7
52 11 5
52 12 13
52 13 12
52 14 10
52 15 2
52 16 7
52 17 13
52 18 11
52 19 7
52 20 8
52 21 9
52 22 9
52 23 2
52 24 1
52 25 2
52 26 6
52 27 7
52 28 5
52 29 12
52 30 12
52 31 5
52 32 6
52 33 6
52 34 10
52 35 1
52 36 9
52 37 11
52 38 2
52 39 10
52 40 2
52 41 5
52 42 1
52 43 6
52 44 3
52 45 2
52 46 10
52 47 8
52 48 4
52 49 7
52 50 9
52 51 7
53 0 3
53 1 1
53 2 11
53 3 1
53 4 14
53 5 6
53 6 11
53 7 5
53 8 10
53 9 13
53 10 12
53 11 1
53 12 14
53 13 10
53 14 7
53 15 14
53 16 6
53 17 10
53 18 3
53 19 11
53 20 14
53 21 13
53 22 2
53 23 4
53 24 11
53 25 12
53 26 6
53 27 4
53 28 2
53 29 2
53 30 7
53 31 2
53 32 10
53 33 3
53 34 14
53 35 6
53 36 10
53 37 1
53 38 6
53 39 6
53 40 13
53 41 12
53 42 6
53 43 7
53 44 7
53 45 12
53 46 12
53 47 1
53 48 11
53 49 14
53 50 10
53 51 10
53 52 3
54 0 9
54 1 7
54 2 14
54 3 10
54 4 14
54 5 14
54 6 8
54 7 2
54 8 8
54 9 7
54 10 8
54 11 7
54 12 7
54 13 13
54 14 1
54 15 6
54 16 6
54 17 3
54 18 1
54 19 7
54 20 5
54 21 5
54 22 11
54 23 9
54 24 5
54 25 14
54 26 11
54 27 3
54 28 4
54 29 9
54 30 8
54 31 8
54 32 7
54 33 7
54 34 12
54 35 14
54 36 7
54 37 12
54 38 10
54 39 1
54 40 14
54 41 6
54 42 14
54 43 5
54 44 7
54 45 11
54 46 3
54 47 1
54 48 1
54 49 14
54 50 14
54 51 12
54 52 4
54 53 4
55 0 4
55 1 11
55 2 4
55 3 6
55 4 10
55 5 14
55 6 12
55 7 10
55 8 13
55 9 9
55 10 11
55 11 6
55 12 3
55 13 11
55 14 4
55 15 7
55 16 12
55 17 10
55 18 12
55 19 8
55 20 11
55 21 1
55 22 2
55 23 8
55 24 8
55 25 8
55 26 9
55 27 4
55 28 9
55 29 3
55 30 3
55 31 13
55 32 3
55 33 10
55 34 12
55 35 12
55 36 4
55 37 7
55 38 10
55 39 6
55 40 8
55 41 6
55 42 10
55 43 1
55 44 7
55 45 3
55 46 13
55 47 13
55 48 2
55 49 3
55 50 1
55 51 11
55 52 1
55 53 12
55 54 14
56 0 7
56 1 2
56 2 8
56 3 11
56 4 11
56 5 11
56 6 8
56 7 8
56 8 13
56 9 7
56 10 8
56 11 10
56 12 5
56 13 1
56 14 11
56 15 2
56 16 4
56 17 11
56 18 8
56 19 9
56 20 12
56 21 13
56 22 5
56 23 10
56 24 14
56 25 8
56 26 9
56 27 9
56 28 3
56 29 3
56 30 6
56 31 12
56 32 8
56 33 6
56 34 6
56 35 1
56 36 9
56 37 11
56 38 4
56 39 2
56 40 7
56 41 13
56 42 11
56 43 5
56 44 10
56 45 5
56 46 8
56 47 13
56 48 1
56 49 12
56 50 14
56 51 6
56 52 5
56 53 8
56 54 12
56 55 8
57 0 8
57 1 8
57 2 1
57 3 7
57 4 5
57 5 1
57 6 14
57 7 4
57 8 11
57 9 10
57 10 13
57 11 11
57 12 11
57 13 11
57 14 6
57 15 10
57 16 11
57 17 12
57 18 13
57 19 11
57 20 2
57 21 4
57 22 3
57 23 14
57 24 4
57 25 7
57 26 12
57 27 3
57 28 10
57 29 5
57 30 6
57 31 12
57 32 4
57 33 5
57 34 6
57 35 11
57 36 11
57 37 4
57 38 13
57 39 4
57 40 9
57 41 8
57 42 8
57 43 14
57 44 6
57 45 11
57 46 3
57 47 1
57 48 2
57 49 2
57 50 9
57 51 3
57 52 5
57 53 8
57 54 9
57 55 8
57 56 11
58 0 14
58 1 7
58 2 3
58 3 3
58 4 8
58 5 13
58 6 5
58 7 11
58 8 7
58 9 7
58 10 6
58 11 3
58 12 3
58 13 11
58 14 13
58 15 7
58 16 8
58 17 12
58 18 5
58 19 8
58 20 3
58 21 7
58 22 9
58 23 12
58 24 3
58 25 8
58 26 6
58 27 1
58 28 7
58 29 14
58 30 12
58 31 13
58 32 14
58 33 6
58 34 11
58 35 5
58 36 4
58 37 3
58 38 2
58 39 3
58 40 1
58 41 7
58 42 2
58 43 4
58 44 8
58 45 6
58 46 6
58 47 14
58 48 14
58 49 14
58 50 3
58 51 3
58 52 1
58 53 1
58 54 13
58 55 3
58 56 11
58 57 3
59 0 7
59 1 8
59 2 11
59 3 12
59 4 2
59 5 13
59 6 10
59 7 14
59 8 3
59 9 7
59 10 12
59 11 1
59 12 9
59 13 6
59 14 7
59 15 9
59 16 6
59 17 10
59 18 9
59 19 6
59 20 10
59 21 8
59 22 14
59 23 1
59 24 14
59 25 14
59 26 8
59 27 14
59 28 12
59 29 2
59 30 10
59 31 13
59 32 6
59 33 12
59 34 9
59 35 1
59 36 7
59 37 8
59 38 1
59 39 8
59 40 9
59 41 4
59 42 2
59 43 14
59 44 3
59 45 9
59 46 3
59 47 4
59 48 3
59 49 10
59 50 12
59 51 10
59 52 12
59 53 8
59 54 7
59 55 7
59 56 12
59 57 3
59 58 8
